benchmarks_CP/INST_36x36/30/inst36x36_30_55.dzn
S=6;
start=[|
-1,	-1,	-1,	-1,	-1,	-1,	10,	29,	33,	-1,	-1,	-1,	27,	-1,	-1,	-1,	-1,	-1,	-1,	-1,	-1,	-1,	18,	9,	-1,	-1,	-1,	-1,	-1,	-1,	-1,	-1,	36,	-1,	28,	-1|
-1,	-1,	33,	-1,	-1,	29,	-1,	-1,	-1,	-1,	-1,	30,	-1,	15,	-1,	-1,	34,	-1,	2,	19,	6,	-1,	-1,	8,	35,	-1,	24,	31,	20,	-1,	-1,	32,	-1,	17,	12,	23|
-1,	-1,	-1,	-1,	-1,	-1,	-1,	8,	3,	-1,	6,	-1,	-1,	20,	-1,	31,	-1,	19,	-1,	22,	-1,	15,	-1,	1,	-1,	-1,	-1,	4,	-1,	36,	-1,	-1,	-1,	-1,	5,	-1|
-1,	-1,	17,	27,	18,	-1,	22,	12,	-1,	-1,	-1,	36,	-1,	8,	-1,	-1,	-1,	-1,	-1,	-1,	-1,	-1,	-1,	32,	19,	7,	-1,	-1,	3,	-1,	34,	20,	-1,	-1,	6,	-1|
-1,	14,	-1,	-1,	-1,	-1,	17,	-1,	26,	15,	27,	-1,	-1,	2,	-1,	-1,	-1,	36,	-1,	-1,	11,	25,	34,	35,	23,	-1,	-1,	12,	30,	-1,	-1,	-1,	-1,	-1,	19,	33|
25,	-1,	-1,	-1,	-1,	15,	-1,	24,	34,	-1,	19,	-1,	-1,	-1,	23,	-1,	26,	-1,	14,	-1,	-1,	36,	-1,	-1,	17,	-1,	33,	-1,	-1,	-1,	10,	-1,	-1,	-1,	-1,	-1|
-1,	15,	-1,	-1,	-1,	-1,	18,	-1,	-1,	5,	-1,	-1,	6,	29,	-1,	-1,	31,	-1,	10,	-1,	1,	-1,	13,	23,	-1,	-1,	-1,	26,	-1,	-1,	-1,	-1,	-1,	-1,	-1,	-1|
9,	-1,	-1,	-1,	10,	-1,	-1,	-1,	24,	8,	-1,	33,	34,	-1,	-1,	16,	3,	-1,	4,	5,	-1,	-1,	36,	-1,	18,	-1,	35,	-1,	-1,	-1,	-1,	14,	26,	1,	-1,	-1|
-1,	-1,	31,	30,	-1,	-1,	-1,	-1,	-1,	-1,	1,	23,	8,	11,	32,	-1,	25,	2,	26,	-1,	-1,	-1,	-1,	6,	-1,	-1,	21,	-1,	-1,	-1,	-1,	34,	28,	-1,	-1,	10|
-1,	-1,	-1,	25,	2,	-1,	-1,	-1,	12,	-1,	-1,	-1,	-1,	-1,	-1,	26,	27,	35,	24,	-1,	-1,	-1,	-1,	-1,	8,	-1,	-1,	-1,	-1,	6,	-1,	-1,	-1,	-1,	-1,	-1|
6,	-1,	-1,	-1,	-1,	-1,	-1,	-1,	20,	-1,	15,	-1,	-1,	-1,	-1,	-1,	7,	-1,	-1,	-1,	-1,	-1,	-1,	-1,	-1,	-1,	-1,	-1,	-1,	-1,	17,	-1,	18,	-1,	-1,	-1|
-1,	-1,	-1,	-1,	20,	-1,	11,	31,	-1,	-1,	-1,	27,	13,	-1,	-1,	-1,	36,	-1,	-1,	-1,	-1,	-1,	-1,	15,	-1,	-1,	-1,	-1,	23,	-1,	6,	8,	-1,	33,	2,	-1|
-1,	-1,	35,	34,	-1,	-1,	5,	20,	-1,	-1,	-1,	18,	-1,	-1,	12,	-1,	-1,	-1,	6,	-1,	-1,	-1,	-1,	-1,	25,	-1,	-1,	-1,	-1,	10,	-1,	-1,	-1,	-1,	-1,	15|
-1,	-1,	-1,	-1,	-1,	-1,	-1,	-1,	22,	-1,	33,	8,	-1,	18,	25,	-1,	-1,	-1,	15,	7,	-1,	-1,	4,	-1,	-1,	36,	-1,	-1,	-1,	-1,	3,	-1,	-1,	-1,	-1,	-1|
32,	29,	-1,	-1,	-1,	-1,	-1,	-1,	-1,	-1,	-1,	-1,	-1,	-1,	28,	19,	-1,	11,	-1,	-1,	-1,	-1,	-1,	-1,	-1,	-1,	23,	22,	-1,	-1,	-1,	30,	17,	-1,	-1,	-1|
-1,	30,	-1,	-1,	-1,	-1,	-1,	26,	-1,	-1,	21,	-1,	-1,	-1,	-1,	-1,	-1,	6,	-1,	-1,	19,	-1,	-1,	36,	13,	-1,	-1,	-1,	29,	-1,	2,	-1,	-1,	18,	-1,	-1|
20,	18,	15,	-1,	-1,	-1,	9,	-1,	-1,	25,	30,	1,	-1,	-1,	-1,	-1,	29,	-1,	-1,	-1,	3,	-1,	-1,	-1,	-1,	33,	-1,	28,	-1,	2,	19,	-1,	-1,	-1,	-1,	-1|
10,	-1,	-1,	33,	-1,	23,	-1,	-1,	-1,	-1,	-1,	-1,	36,	-1,	-1,	-1,	1,	-1,	-1,	-1,	-1,	-1,	-1,	-1,	-1,	-1,	6,	-1,	-1,	-1,	-1,	-1,	-1,	-1,	-1,	-1|
-1,	-1,	-1,	-1,	32,	-1,	19,	1,	-1,	-1,	24,	-1,	-1,	-1,	-1,	3,	-1,	34,	-1,	-1,	-1,	-1,	-1,	-1,	-1,	-1,	-1,	9,	-1,	-1,	-1,	-1,	-1,	30,	-1,	-1|
17,	-1,	-1,	-1,	-1,	-1,	-1,	-1,	8,	-1,	-1,	-1,	-1,	-1,	7,	-1,	-1,	14,	-1,	-1,	-1,	21,	-1,	-1,	-1,	-1,	-1,	-1,	-1,	-1,	35,	-1,	-1,	-1,	-1,	-1|
33,	-1,	-1,	9,	-1,	-1,	-1,	-1,	15,	-1,	-1,	-1,	-1,	-1,	-1,	-1,	-1,	25,	-1,	-1,	24,	-1,	-1,	19,	-1,	-1,	-1,	34,	-1,	-1,	-1,	-1,	23,	31,	-1,	-1|
34,	-1,	13,	12,	-1,	19,	-1,	-1,	-1,	33,	-1,	-1,	2,	-1,	-1,	-1,	-1,	9,	-1,	-1,	-1,	23,	35,	22,	1,	-1,	14,	29,	-1,	5,	8,	-1,	-1,	-1,	4,	-1|
-1,	-1,	-1,	-1,	-1,	-1,	26,	34,	-1,	-1,	-1,	21,	-1,	-1,	-1,	17,	-1,	-1,	-1,	-1,	10,	-1,	-1,	16,	7,	-1,	-1,	-1,	25,	-1,	29,	18,	-1,	-1,	-1,	24|
-1,	-1,	-1,	-1,	29,	14,	-1,	16,	-1,	-1,	-1,	-1,	-1,	32,	21,	-1,	-1,	-1,	3,	36,	17,	30,	-1,	-1,	-1,	-1,	-1,	15,	-1,	-1,	-1,	-1,	-1,	-1,	25,	-1|
36,	-1,	-1,	23,	-1,	-1,	33,	-1,	-1,	-1,	22,	-1,	-1,	-1,	-1,	-1,	-1,	-1,	20,	-1,	-1,	-1,	-1,	26,	-1,	-1,	-1,	-1,	18,	-1,	13,	19,	5,	-1,	-1,	-1|
22,	-1,	19,	3,	-1,	-1,	-1,	-1,	-1,	7,	-1,	-1,	-1,	-1,	5,	14,	24,	-1,	25,	-1,	-1,	-1,	29,	-1,	-1,	-1,	-1,	-1,	-1,	27,	15,	31,	11,	-1,	-1,	-1|
15,	6,	10,	-1,	9,	-1,	-1,	19,	1,	-1,	4,	-1,	-1,	3,	2,	-1,	-1,	-1,	-1,	-1,	-1,	-1,	27,	5,	-1,	-1,	11,	-1,	22,	-1,	-1,	-1,	-1,	-1,	-1,	20|
-1,	-1,	20,	-1,	-1,	-1,	-1,	18,	-1,	-1,	-1,	-1,	-1,	-1,	-1,	-1,	-1,	-1,	23,	-1,	-1,	-1,	-1,	-1,	-1,	-1,	-1,	-1,	5,	-1,	-1,	-1,	4,	-1,	-1,	-1|
31,	7,	18,	24,	-1,	-1,	-1,	-1,	-1,	27,	8,	-1,	-1,	-1,	-1,	-1,	-1,	26,	-1,	-1,	-1,	3,	-1,	13,	-1,	35,	-1,	19,	-1,	29,	30,	-1,	10,	-1,	-1,	-1|
11,	-1,	-1,	-1,	-1,	-1,	-1,	-1,	-1,	17,	-1,	5,	25,	36,	18,	-1,	-1,	20,	1,	6,	-1,	-1,	-1,	24,	-1,	-1,	15,	-1,	-1,	-1,	-1,	-1,	-1,	-1,	-1,	-1|
-1,	-1,	-1,	15,	-1,	10,	-1,	2,	-1,	22,	-1,	-1,	20,	-1,	-1,	-1,	-1,	-1,	-1,	-1,	36,	-1,	-1,	-1,	6,	-1,	-1,	-1,	-1,	24,	31,	-1,	-1,	4,	8,	-1|
-1,	-1,	4,	-1,	24,	-1,	-1,	-1,	-1,	-1,	3,	-1,	-1,	25,	-1,	-1,	-1,	-1,	29,	-1,	-1,	-1,	-1,	-1,	-1,	21,	-1,	-1,	-1,	-1,	-1,	-1,	-1,	-1,	-1,	-1|
19,	-1,	-1,	-1,	-1,	32,	-1,	-1,	-1,	-1,	-1,	34,	-1,	22,	-1,	-1,	-1,	-1,	30,	4,	-1,	13,	7,	10,	-1,	-1,	-1,	-1,	14,	-1,	-1,	27,	-1,	16,	-1,	-1|
-1,	9,	21,	-1,	-1,	-1,	32,	17,	27,	-1,	-1,	-1,	-1,	-1,	-1,	-1,	19,	-1,	-1,	-1,	-1,	-1,	-1,	-1,	-1,	-1,	-1,	-1,	-1,	7,	-1,	-1,	29,	-1,	-1,	-1|
1,	-1,	-1,	-1,	-1,	-1,	-1,	33,	-1,	-1,	31,	-1,	-1,	-1,	-1,	-1,	-1,	-1,	22,	-1,	-1,	-1,	25,	-1,	-1,	-1,	-1,	11,	-1,	-1,	14,	5,	9,	-1,	-1,	-1|
-1,	-1,	30,	18,	-1,	12,	-1,	-1,	-1,	-1,	25,	-1,	-1,	-1,	-1,	-1,	-1,	-1,	-1,	-1,	-1,	-1,	-1,	-1,	27,	-1,	32,	-1,	28,	-1,	-1,	-1,	19,	-1,	-1,	-1|];
